\ENCODING=ISO-8859-1
\Problem name: ilog.cplex

Minimize
 obj1: 95918 x1 + 106593 x2 + 102732 x3 + 90930 x4 + 104080 x5 + 106784 x6
       + 104083 x7 + 94944 x8 + 108800 x9 + 95964 x10 + 108239 x11 + 92192 x12
       + 103142 x13 + 106362 x14 + 94401 x15 + 95840 x16 + 96134 x17
       + 96770 x18 + 107064 x19 + 105981 x20 + 105431 x21 + 101537 x22
       + 107232 x23 + 109294 x24 + 98185 x25 + 94450 x26 + 99118 x27
       + 108361 x28 + 90185 x29 + 94293 x30 + 99707 x31 + 106383 x32
       + 101804 x33 + 96905 x34 + 97280 x35 + 93831 x36 + 103364 x37
       + 107151 x38 + 99422 x39 + 104991 x40 + 102239 x41 + 103467 x42
       + 101046 x43 + 94400 x44 + 109351 x45 + 97490 x46 + 108612 x47
       + 105886 x48 + 93661 x49 + 91791 x50 + 97976 x51 + 90172 x52
       + 109851 x53 + 109824 x54 + 100231 x55 + 90971 x56 + 106600 x57
       + 93963 x58 + 102382 x59 + 104034 x60 + 98787 x61 + 95506 x62
       + 98170 x63 + 105725 x64 + 98002 x65 + 102103 x66 + 109002 x67
       + 96491 x68 + 97360 x69 + 104630 x70 + 97256 x71 + 98158 x72 + 93830 x73
       + 103608 x74 + 93675 x75 + 105892 x76 + 99454 x77 + 105421 x78
       + 90493 x79 + 105683 x80 + 105432 x81 + 108487 x82 + 97373 x83
       + 103913 x84 + 90321 x85 + 103665 x86 + 109892 x87 + 92358 x88
       + 95724 x89 + 109271 x90 + 100186 x91 + 91275 x92 + 103016 x93
       + 99545 x94 + 107387 x95 + 102026 x96 + 95439 x97 + 109512 x98
       + 104076 x99 + 105046 x100 + 101362 x101 + 108838 x102 + 104216 x103
       + 99009 x104 + 106507 x105 + 92684 x106 + 97917 x107 + 92678 x108
       + 95645 x109 + 98446 x110 + 108826 x111 + 92212 x112 + 97577 x113
       + 103902 x114 + 91104 x115 + 93555 x116 + 101101 x117 + 94476 x118
       + 94639 x119 + 92113 x120 + 100019 x121 + 94298 x122 + 106054 x123
       + 93997 x124 + 95070 x125 + 91642 x126 + 109748 x127 + 92918 x128
       + 94832 x129 + 107473 x130 + 93088 x131 + 109615 x132 + 94405 x133
       + 101732 x134 + 106699 x135 + 96874 x136 + 106998 x137 + 105902 x138
       + 91185 x139 + 109880 x140 + 102725 x141 + 93284 x142 + 90724 x143
       + 109257 x144 + 92939 x145 + 98400 x146 + 91916 x147 + 99313 x148
       + 94928 x149 + 106711 x150 + 98576 x151 + 93927 x152 + 94948 x153
       + 96000 x154 + 101638 x155 + 100524 x156 + 106341 x157 + 91578 x158
       + 97404 x159 + 101156 x160 + 93875 x161 + 98913 x162 + 107076 x163
       + 108999 x164 + 105455 x165 + 99291 x166 + 95860 x167 + 108385 x168
       + 98021 x169 + 96843 x170 + 100868 x171 + 107027 x172 + 105699 x173
       + 108547 x174 + 93633 x175 + 100164 x176 + 95165 x177 + 92720 x178
       + 105271 x179 + 108119 x180 + 101121 x181 + 99696 x182 + 104948 x183
       + 97241 x184 + 108223 x185 + 92601 x186 + 90633 x187 + 97995 x188
       + 100767 x189 + 91792 x190 + 108236 x191 + 103082 x192 + 105085 x193
       + 107493 x194 + 91660 x195 + 92199 x196 + 93985 x197 + 90613 x198
       + 98092 x199 + 95867 x200 + 92067 x201 + 98099 x202 + 102132 x203
       + 90348 x204 + 106015 x205 + 108441 x206 + 109059 x207 + 93842 x208
       + 97761 x209 + 107471 x210 + 106228 x211 + 104968 x212 + 95776 x213
       + 97743 x214 + 101770 x215 + 103007 x216 + 107724 x217 + 93562 x218
       + 90569 x219 + 93444 x220 + 96347 x221 + 108086 x222 + 98904 x223
       + 92083 x224 + 109659 x225 + 99005 x226 + 91214 x227 + 96311 x228
       + 96428 x229 + 94881 x230 + 95109 x231 + 93063 x232 + 108369 x233
       + 95555 x234 + 94039 x235 + 99620 x236 + 91627 x237 + 106891 x238
       + 90989 x239 + 105561 x240 + 102064 x241 + 99387 x242 + 104465 x243
       + 106221 x244 + 108144 x245 + 94676 x246 + 104564 x247 + 100486 x248
       + 92574 x249 + 96379 x250 + 105449 x251 + 91873 x252 + 104867 x253
       + 90466 x254 + 95555 x255 + 102433 x256 + 109092 x257 + 102204 x258
       + 100729 x259 + 107026 x260 + 100208 x261 + 109023 x262 + 107536 x263
       + 108954 x264 + 94215 x265 + 98220 x266 + 106349 x267 + 109747 x268
       + 100602 x269 + 100200 x270 + 99652 x271 + 109892 x272 + 108425 x273
       + 95320 x274 + 104180 x275 + 97516 x276 + 105787 x277 + 90391 x278
       + 94252 x279 + 102774 x280 + 106594 x281 + 109506 x282 + 108063 x283
       + 97176 x284 + 98147 x285 + 103109 x286 + 108711 x287 + 99110 x288
       + 108479 x289 + 109062 x290 + 97405 x291 + 109478 x292 + 103285 x293
       + 99975 x294 + 97529 x295 + 104711 x296 + 98907 x297 + 102177 x298
       + 105168 x299 + 98305 x300 + 106596 x301 + 98349 x302 + 98834 x303
       + 92205 x304 + 99665 x305 + 102860 x306 + 107488 x307 + 107249 x308
       + 104070 x309 + 109587 x310 + 105799 x311 + 104898 x312 + 90502 x313
       + 105673 x314 + 107941 x315 + 109968 x316 + 106555 x317 + 91186 x318
       + 98524 x319 + 98056 x320 + 102431 x321 + 98877 x322 + 108179 x323
       + 108213 x324 + 105743 x325 + 93462 x326 + 98821 x327 + 90015 x328
       + 90465 x329 + 99237 x330 + 102130 x331 + 95787 x332 + 94663 x333
       + 97652 x334 + 92099 x335 + 101902 x336 + 91804 x337 + 94944 x338
       + 100541 x339 + 91831 x340 + 91220 x341 + 104000 x342 + 103025 x343
       + 98017 x344 + 94779 x345 + 94345 x346 + 91959 x347 + 99679 x348
       + 108806 x349 + 99446 x350 + 93412 x351 + 109274 x352 + 103021 x353
       + 91525 x354 + 94738 x355 + 91633 x356 + 101545 x357 + 100629 x358
       + 91182 x359 + 106672 x360 + 109108 x361 + 96760 x362 + 92915 x363
       + 104214 x364 + 96734 x365 + 103522 x366 + 106133 x367 + 101720 x368
       + 92608 x369 + 92231 x370 + 91133 x371 + 97917 x372 + 95875 x373
       + 106758 x374 + 105329 x375 + 95699 x376 + 100977 x377 + 100834 x378
       + 92743 x379 + 100360 x380 + 105651 x381 + 103380 x382 + 96095 x383
       + 93050 x384 + 104378 x385 + 90126 x386 + 99128 x387 + 103767 x388
       + 95840 x389 + 94389 x390 + 108291 x391 + 100215 x392 + 100467 x393
       + 109463 x394 + 105714 x395 + 96229 x396 + 107307 x397 + 95202 x398
       + 93903 x399 + 101435 x400 + 108194 x401 + 102230 x402 + 106622 x403
       + 102448 x404 + 91617 x405 + 108592 x406 + 100165 x407 + 105134 x408
       + 98699 x409 + 105751 x410 + 104557 x411 + 97338 x412 + 109326 x413
       + 93471 x414 + 105139 x415 + 91952 x416 + 107758 x417 + 106469 x418
       + 101638 x419 + 101327 x420 + 95761 x421 + 99218 x422 + 102970 x423
       + 91865 x424 + 91165 x425 + 93432 x426 + 103347 x427 + 98975 x428
       + 93985 x429 + 93885 x430 + 94421 x431 + 100933 x432 + 105092 x433
       + 106383 x434 + 104421 x435 + 91887 x436 + 108562 x437 + 103318 x438
       + 97015 x439 + 104097 x440 + 106171 x441 + 94540 x442 + 108918 x443
       + 101260 x444 + 103863 x445 + 92977 x446 + 95990 x447 + 97783 x448
       + 92629 x449 + 98898 x450 + 108496 x451 + 93438 x452 + 92908 x453
       + 104183 x454 + 105803 x455 + 105656 x456 + 109030 x457 + 91167 x458
       + 90911 x459 + 100174 x460 + 108199 x461 + 109338 x462 + 96042 x463
       + 104849 x464 + 97101 x465 + 97607 x466 + 101951 x467 + 101130 x468
       + 98508 x469 + 99864 x470 + 105639 x471 + 103043 x472 + 90057 x473
       + 97181 x474 + 103842 x475 + 94473 x476 + 97932 x477 + 91309 x478
       + 92987 x479 + 102124 x480 + 93756 x481 + 98563 x482 + 95079 x483
       + 94518 x484 + 109093 x485 + 106842 x486 + 104870 x487 + 102635 x488
       + 94297 x489 + 103079 x490 + 91240 x491 + 109321 x492 + 99956 x493
       + 103773 x494 + 92317 x495 + 99039 x496 + 97248 x497 + 98609 x498
       + 101849 x499 + 92397 x500 + 107284 x501 + 96088 x502 + 109342 x503
       + 108686 x504 + 104571 x505 + 98179 x506 + 109276 x507 + 104109 x508
       + 107147 x509 + 109230 x510 + 98560 x511 + 94185 x512 + 103110 x513
       + 101073 x514 + 108949 x515 + 108409 x516 + 106131 x517 + 103648 x518
       + 104254 x519 + 105379 x520 + 100973 x521 + 108449 x522 + 90989 x523
       + 97436 x524 + 94134 x525 + 100717 x526 + 105438 x527 + 95274 x528
       + 104425 x529 + 95521 x530 + 90198 x531 + 105033 x532 + 93651 x533
       + 102770 x534 + 98867 x535 + 93057 x536 + 108487 x537 + 106641 x538
       + 108822 x539 + 96800 x540 + 104308 x541 + 99453 x542 + 104621 x543
       + 101578 x544 + 109220 x545 + 101915 x546 + 90541 x547 + 106432 x548
       + 93450 x549 + 92529 x550 + 90598 x551 + 97371 x552 + 95467 x553
       + 102043 x554 + 95129 x555 + 103090 x556 + 108556 x557 + 92788 x558
       + 95801 x559 + 97170 x560 + 100466 x561 + 91665 x562 + 92539 x563
       + 93901 x564 + 93549 x565 + 92656 x566 + 91518 x567 + 92489 x568
       + 92768 x569 + 91721 x570 + 102265 x571 + 104123 x572 + 97908 x573
       + 104115 x574 + 108616 x575 + 93929 x576 + 105846 x577 + 107021 x578
       + 105682 x579 + 102969 x580 + 98937 x581 + 108850 x582 + 102921 x583
       + 104228 x584 + 106360 x585 + 90613 x586 + 92057 x587 + 90891 x588
       + 96683 x589 + 94522 x590 + 107810 x591 + 95284 x592 + 91995 x593
       + 90264 x594 + 109286 x595 + 92444 x596 + 106578 x597 + 90380 x598
       + 100315 x599 + 23205 x600 + 375721 x601 + 436586 x602 + 379036 x603
       + 395137 x604 + 428339 x605 + 376133 x606 + 393652 x607 + 389490 x608
       + 372916 x609 + 401189 x610 + 439785 x611 + 408616 x612 + 368119 x613
       + 379430 x614 + 373421 x615 + 405440 x616 + 419236 x617 + 416489 x618
       + 365029 x619 + 398130 x620 + 433781 x621 + 412821 x622 + 408875 x623
       + 363268 x624 + 430818 x625 + 397785 x626 + 378831 x627 + 394295 x628
       + 417868 x629 + 438970 x630 + 399586 x631 + 377983 x632 + 361197 x633
       + 381083 x634 + 387842 x635 + 361748 x636 + 434758 x637 + 392603 x638
       + 391302 x639 + 412196 x640 + 419989 x641 + 409663 x642 + 373959 x643
       + 420387 x644 + 423143 x645 + 385528 x646 + 404383 x647 + 391867 x648
       + 418767 x649 + 420288 x650 + 439415 x651 + 429606 x652 + 397408 x653
       + 439279 x654 + 418894 x655 + 395535 x656 + 412565 x657 + 390018 x658
       + 437720 x659 + 272082 x660
Subject To
 c1:   x2 - x10 + x11 + x17 + x23 - x30 + x51  = 1
 c2:   x62 - x70 + x71 + x77 + x83 - x90 + x111  = 0
 c3:   x122 - x130 + x131 + x137 + x143 - x150 + x171  = 0
 c4:   x182 - x190 + x191 + x197 + x203 - x210 + x231  = -1
 c5:   x242 - x250 + x251 + x257 + x263 - x270 + x291  = 0
 c6:   x302 - x310 + x311 + x317 + x323 - x330 + x351  = 0
 c7:   x362 - x370 + x371 + x377 + x383 - x390 + x411  = 0
 c8:   x422 - x430 + x431 + x437 + x443 - x450 + x471  = 0
 c9:   x482 - x490 + x491 + x497 + x503 - x510 + x531  = 0
 c10:  x542 - x550 + x551 + x557 + x563 - x570 + x591  = 0
 c11:  x7 + x14 + x21 - x29 - x44 + x49 + x54 + x57  = 0
 c12:  x67 + x74 + x81 - x89 - x104 + x109 + x114 + x117  = 0
 c13:  x127 + x134 + x141 - x149 - x164 + x169 + x174 + x177  = 0
 c14:  x187 + x194 + x201 - x209 - x224 + x229 + x234 + x237  = 0
 c15:  x247 + x254 + x261 - x269 - x284 + x289 + x294 + x297  = 1
 c16:  x307 + x314 + x321 - x329 - x344 + x349 + x354 + x357  = 0
 c17:  x367 + x374 + x381 - x389 - x404 + x409 + x414 + x417  = -1
 c18:  x427 + x434 + x441 - x449 - x464 + x469 + x474 + x477  = 0
 c19:  x487 + x494 + x501 - x509 - x524 + x529 + x534 + x537  = 0
 c20:  x547 + x554 + x561 - x569 - x584 + x589 + x594 + x597  = 0
 c21:  - x11 + x15 + x25 + x39 - x45 + x52 - x55 + x59  = 0
 c22:  - x71 + x75 + x85 + x99 - x105 + x112 - x115 + x119  = 0
 c23:  - x131 + x135 + x145 + x159 - x165 + x172 - x175 + x179  = 0
 c24:  - x191 + x195 + x205 + x219 - x225 + x232 - x235 + x239  = 0
 c25:  - x251 + x255 + x265 + x279 - x285 + x292 - x295 + x299  = 0
 c26:  - x311 + x315 + x325 + x339 - x345 + x352 - x355 + x359  = 1
 c27:  - x371 + x375 + x385 + x399 - x405 + x412 - x415 + x419  = 0
 c28:  - x431 + x435 + x445 + x459 - x465 + x472 - x475 + x479  = -1
 c29:  - x491 + x495 + x505 + x519 - x525 + x532 - x535 + x539  = 0
 c30:  - x551 + x555 + x565 + x579 - x585 + x592 - x595 + x599  = 0
 c31:  x4 - x5 - x15 + x16 + x55 - x60  = 0
 c32:  x64 - x65 - x75 + x76 + x115 - x120  = 0
 c33:  x124 - x125 - x135 + x136 + x175 - x180  = 0
 c34:  x184 - x185 - x195 + x196 + x235 - x240  = 0
 c35:  x244 - x245 - x255 + x256 + x295 - x300  = 0
 c36:  x304 - x305 - x315 + x316 + x355 - x360  = -1
 c37:  x364 - x365 - x375 + x376 + x415 - x420  = 0
 c38:  x424 - x425 - x435 + x436 + x475 - x480  = 0
 c39:  x484 - x485 - x495 + x496 + x535 - x540  = 0
 c40:  x544 - x545 - x555 + x556 + x595 - x600  = 0
 c41:  x6 + x18 + x22 - x31 - x33 - x35 + x42 + x43 + x44 + x46 - x51 + x53
        = 0
 c42:  x66 + x78 + x82 - x91 - x93 - x95 + x102 + x103 + x104 + x106 - x111
       + x113  = 0
 c43:  x126 + x138 + x142 - x151 - x153 - x155 + x162 + x163 + x164 + x166
       - x171 + x173  = 0
 c44:  x186 + x198 + x202 - x211 - x213 - x215 + x222 + x223 + x224 + x226
       - x231 + x233  = 1
 c45:  x246 + x258 + x262 - x271 - x273 - x275 + x282 + x283 + x284 + x286
       - x291 + x293  = 0
 c46:  x306 + x318 + x322 - x331 - x333 - x335 + x342 + x343 + x344 + x346
       - x351 + x353  = 0
 c47:  x366 + x378 + x382 - x391 - x393 - x395 + x402 + x403 + x404 + x406
       - x411 + x413  = 0
 c48:  x426 + x438 + x442 - x451 - x453 - x455 + x462 + x463 + x464 + x466
       - x471 + x473  = 0
 c49:  x486 + x498 + x502 - x511 - x513 - x515 + x522 + x523 + x524 + x526
       - x531 + x533  = 0
 c50:  x546 + x558 + x562 - x571 - x573 - x575 + x582 + x583 + x584 + x586
       - x591 + x593  = 1
 c51:  x13 + x19 - x23 - x26 - x28 - x41 - x47 + x48 - x53 - x57 + x60  = 0
 c52:  x73 + x79 - x83 - x86 - x88 - x101 - x107 + x108 - x113 - x117 + x120
        = -1
 c53:  x133 + x139 - x143 - x146 - x148 - x161 - x167 + x168 - x173 - x177
       + x180  = 0
 c54:  x193 + x199 - x203 - x206 - x208 - x221 - x227 + x228 - x233 - x237
       + x240  = 0
 c55:  x253 + x259 - x263 - x266 - x268 - x281 - x287 + x288 - x293 - x297
       + x300  = 0
 c56:  x313 + x319 - x323 - x326 - x328 - x341 - x347 + x348 - x353 - x357
       + x360  = 0
 c57:  x373 + x379 - x383 - x386 - x388 - x401 - x407 + x408 - x413 - x417
       + x420  = 0
 c58:  x433 + x439 - x443 - x446 - x448 - x461 - x467 + x468 - x473 - x477
       + x480  = 0
 c59:  x493 + x499 - x503 - x506 - x508 - x521 - x527 + x528 - x533 - x537
       + x540  = 0
 c60:  x553 + x559 - x563 - x566 - x568 - x581 - x587 + x588 - x593 - x597
       + x600  = 0
 c61:  - x7 - x19 - x34 + x35 + x36 + x38 - x42 - x50 + x56  = -1
 c62:  - x67 - x79 - x94 + x95 + x96 + x98 - x102 - x110 + x116  = 0
 c63:  - x127 - x139 - x154 + x155 + x156 + x158 - x162 - x170 + x176  = 0
 c64:  - x187 - x199 - x214 + x215 + x216 + x218 - x222 - x230 + x236  = 0
 c65:  - x247 - x259 - x274 + x275 + x276 + x278 - x282 - x290 + x296  = 0
 c66:  - x307 - x319 - x334 + x335 + x336 + x338 - x342 - x350 + x356  = 0
 c67:  - x367 - x379 - x394 + x395 + x396 + x398 - x402 - x410 + x416  = 0
 c68:  - x427 - x439 - x454 + x455 + x456 + x458 - x462 - x470 + x476  = 0
 c69:  - x487 - x499 - x514 + x515 + x516 + x518 - x522 - x530 + x536  = 0
 c70:  - x547 - x559 - x574 + x575 + x576 + x578 - x582 - x590 + x596  = -1
 c71:  - x8 + x12 - x27 - x49 + x50  = 0
 c72:  - x68 + x72 - x87 - x109 + x110  = 1
 c73:  - x128 + x132 - x147 - x169 + x170  = 0
 c74:  - x188 + x192 - x207 - x229 + x230  = 0
 c75:  - x248 + x252 - x267 - x289 + x290  = 0
 c76:  - x308 + x312 - x327 - x349 + x350  = 0
 c77:  - x368 + x372 - x387 - x409 + x410  = 0
 c78:  - x428 + x432 - x447 - x469 + x470  = 1
 c79:  - x488 + x492 - x507 - x529 + x530  = -1
 c80:  - x548 + x552 - x567 - x589 + x590  = 0
 c81:  x3 + x9 - x13 + x34  = 0
 c82:  x63 + x69 - x73 + x94  = 0
 c83:  x123 + x129 - x133 + x154  = 0
 c84:  x183 + x189 - x193 + x214  = 0
 c85:  x243 + x249 - x253 + x274  = -1
 c86:  x303 + x309 - x313 + x334  = 0
 c87:  x363 + x369 - x373 + x394  = 0
 c88:  x423 + x429 - x433 + x454  = 0
 c89:  x483 + x489 - x493 + x514  = 1
 c90:  x543 + x549 - x553 + x574  = 0
 c91:  - x1 + x20 + x26 + x29 - x32 - x36 - x43 - x59  = 0
 c92:  - x61 + x80 + x86 + x89 - x92 - x96 - x103 - x119  = 0
 c93:  - x121 + x140 + x146 + x149 - x152 - x156 - x163 - x179  = 0
 c94:  - x181 + x200 + x206 + x209 - x212 - x216 - x223 - x239  = 0
 c95:  - x241 + x260 + x266 + x269 - x272 - x276 - x283 - x299  = 0
 c96:  - x301 + x320 + x326 + x329 - x332 - x336 - x343 - x359  = 0
 c97:  - x361 + x380 + x386 + x389 - x392 - x396 - x403 - x419  = 0
 c98:  - x421 + x440 + x446 + x449 - x452 - x456 - x463 - x479  = 0
 c99:  - x481 + x500 + x506 + x509 - x512 - x516 - x523 - x539  = 0
 c100: - x541 + x560 + x566 + x569 - x572 - x576 - x583 - x599  = 0
 c101: x8 - x9 - x12 - x14 - x16 - x24 + x33 + x40 + x41 + x45 - x46 - x48
       + x58  = 0
 c102: x68 - x69 - x72 - x74 - x76 - x84 + x93 + x100 + x101 + x105 - x106
       - x108 + x118  = 0
 c103: x128 - x129 - x132 - x134 - x136 - x144 + x153 + x160 + x161 + x165
       - x166 - x168 + x178  = 0
 c104: x188 - x189 - x192 - x194 - x196 - x204 + x213 + x220 + x221 + x225
       - x226 - x228 + x238  = 0
 c105: x248 - x249 - x252 - x254 - x256 - x264 + x273 + x280 + x281 + x285
       - x286 - x288 + x298  = 0
 c106: x308 - x309 - x312 - x314 - x316 - x324 + x333 + x340 + x341 + x345
       - x346 - x348 + x358  = 0
 c107: x368 - x369 - x372 - x374 - x376 - x384 + x393 + x400 + x401 + x405
       - x406 - x408 + x418  = 0
 c108: x428 - x429 - x432 - x434 - x436 - x444 + x453 + x460 + x461 + x465
       - x466 - x468 + x478  = 0
 c109: x488 - x489 - x492 - x494 - x496 - x504 + x513 + x520 + x521 + x525
       - x526 - x528 + x538  = 0
 c110: x548 - x549 - x552 - x554 - x556 - x564 + x573 + x580 + x581 + x585
       - x586 - x588 + x598  = 0
 c111: x5 - x18 - x20 - x40 + x47  = 0
 c112: x65 - x78 - x80 - x100 + x107  = 0
 c113: x125 - x138 - x140 - x160 + x167  = 1
 c114: x185 - x198 - x200 - x220 + x227  = 0
 c115: x245 - x258 - x260 - x280 + x287  = 0
 c116: x305 - x318 - x320 - x340 + x347  = 0
 c117: x365 - x378 - x380 - x400 + x407  = 0
 c118: x425 - x438 - x440 - x460 + x467  = 0
 c119: x485 - x498 - x500 - x520 + x527  = 0
 c120: x545 - x558 - x560 - x580 + x587  = 0
 c121: x10 + x31 - x37 - x39 - x54 - x56 - x58  = 0
 c122: x70 + x91 - x97 - x99 - x114 - x116 - x118  = 0
 c123: x130 + x151 - x157 - x159 - x174 - x176 - x178  = 0
 c124: x190 + x211 - x217 - x219 - x234 - x236 - x238  = 0
 c125: x250 + x271 - x277 - x279 - x294 - x296 - x298  = 0
 c126: x310 + x331 - x337 - x339 - x354 - x356 - x358  = 0
 c127: x370 + x391 - x397 - x399 - x414 - x416 - x418  = 1
 c128: x430 + x451 - x457 - x459 - x474 - x476 - x478  = 0
 c129: x490 + x511 - x517 - x519 - x534 - x536 - x538  = 0
 c130: x550 + x571 - x577 - x579 - x594 - x596 - x598  = 0
 c131: - x3 - x4 - x17 - x22 + x24 + x28 + x30 + x32 - x52  = 0
 c132: - x63 - x64 - x77 - x82 + x84 + x88 + x90 + x92 - x112  = 0
 c133: - x123 - x124 - x137 - x142 + x144 + x148 + x150 + x152 - x172  = 0
 c134: - x183 - x184 - x197 - x202 + x204 + x208 + x210 + x212 - x232  = 0
 c135: - x243 - x244 - x257 - x262 + x264 + x268 + x270 + x272 - x292  = 0
 c136: - x303 - x304 - x317 - x322 + x324 + x328 + x330 + x332 - x352  = 0
 c137: - x363 - x364 - x377 - x382 + x384 + x388 + x390 + x392 - x412  = 0
 c138: - x423 - x424 - x437 - x442 + x444 + x448 + x450 + x452 - x472  = 0
 c139: - x483 - x484 - x497 - x502 + x504 + x508 + x510 + x512 - x532  = 0
 c140: - x543 - x544 - x557 - x562 + x564 + x568 + x570 + x572 - x592  = 0
 c141: x1 - x2 - x6 - x21 - x25 + x27 + x37 - x38  = 0
 c142: x61 - x62 - x66 - x81 - x85 + x87 + x97 - x98  = 0
 c143: x121 - x122 - x126 - x141 - x145 + x147 + x157 - x158  = -1
 c144: x181 - x182 - x186 - x201 - x205 + x207 + x217 - x218  = 0
 c145: x241 - x242 - x246 - x261 - x265 + x267 + x277 - x278  = 0
 c146: x301 - x302 - x306 - x321 - x325 + x327 + x337 - x338  = 0
 c147: x361 - x362 - x366 - x381 - x385 + x387 + x397 - x398  = 0
 c148: x421 - x422 - x426 - x441 - x445 + x447 + x457 - x458  = 0
 c149: x481 - x482 - x486 - x501 - x505 + x507 + x517 - x518  = 0
 c150: x541 - x542 - x546 - x561 - x565 + x567 + x577 - x578  = 0
 c151: 4 x1 + 4 x61 + 4 x121 + 4 x181 + 4 x241 + 4 x301 + 4 x361 + 4 x421
       + 4 x481 + 4 x541 - 19 x601 <= 0
 c152: 4 x2 + 4 x62 + 4 x122 + 4 x182 + 4 x242 + 4 x302 + 4 x362 + 4 x422
       + 4 x482 + 4 x542 - 22 x602 <= 0
 c153: 4 x3 + 4 x63 + 4 x123 + 4 x183 + 4 x243 + 4 x303 + 4 x363 + 4 x423
       + 4 x483 + 4 x543 - 18 x603 <= 0
 c154: 4 x4 + 4 x64 + 4 x124 + 4 x184 + 4 x244 + 4 x304 + 4 x364 + 4 x424
       + 4 x484 + 4 x544 - 22 x604 <= 0
 c155: 4 x5 + 4 x65 + 4 x125 + 4 x185 + 4 x245 + 4 x305 + 4 x365 + 4 x425
       + 4 x485 + 4 x545 - 21 x605 <= 0
 c156: 4 x6 + 4 x66 + 4 x126 + 4 x186 + 4 x246 + 4 x306 + 4 x366 + 4 x426
       + 4 x486 + 4 x546 - 22 x606 <= 0
 c157: 4 x7 + 4 x67 + 4 x127 + 4 x187 + 4 x247 + 4 x307 + 4 x367 + 4 x427
       + 4 x487 + 4 x547 - 21 x607 <= 0
 c158: 4 x8 + 4 x68 + 4 x128 + 4 x188 + 4 x248 + 4 x308 + 4 x368 + 4 x428
       + 4 x488 + 4 x548 - 20 x608 <= 0
 c159: 4 x9 + 4 x69 + 4 x129 + 4 x189 + 4 x249 + 4 x309 + 4 x369 + 4 x429
       + 4 x489 + 4 x549 - 19 x609 <= 0
 c160: 4 x10 + 4 x70 + 4 x130 + 4 x190 + 4 x250 + 4 x310 + 4 x370 + 4 x430
       + 4 x490 + 4 x550 - 22 x610 <= 0
 c161: 4 x11 + 4 x71 + 4 x131 + 4 x191 + 4 x251 + 4 x311 + 4 x371 + 4 x431
       + 4 x491 + 4 x551 - 18 x611 <= 0
 c162: 4 x12 + 4 x72 + 4 x132 + 4 x192 + 4 x252 + 4 x312 + 4 x372 + 4 x432
       + 4 x492 + 4 x552 - 21 x612 <= 0
 c163: 4 x13 + 4 x73 + 4 x133 + 4 x193 + 4 x253 + 4 x313 + 4 x373 + 4 x433
       + 4 x493 + 4 x553 - 20 x613 <= 0
 c164: 4 x14 + 4 x74 + 4 x134 + 4 x194 + 4 x254 + 4 x314 + 4 x374 + 4 x434
       + 4 x494 + 4 x554 - 21 x614 <= 0
 c165: 4 x15 + 4 x75 + 4 x135 + 4 x195 + 4 x255 + 4 x315 + 4 x375 + 4 x435
       + 4 x495 + 4 x555 - 20 x615 <= 0
 c166: 4 x16 + 4 x76 + 4 x136 + 4 x196 + 4 x256 + 4 x316 + 4 x376 + 4 x436
       + 4 x496 + 4 x556 - 21 x616 <= 0
 c167: 4 x17 + 4 x77 + 4 x137 + 4 x197 + 4 x257 + 4 x317 + 4 x377 + 4 x437
       + 4 x497 + 4 x557 - 20 x617 <= 0
 c168: 4 x18 + 4 x78 + 4 x138 + 4 x198 + 4 x258 + 4 x318 + 4 x378 + 4 x438
       + 4 x498 + 4 x558 - 19 x618 <= 0
 c169: 4 x19 + 4 x79 + 4 x139 + 4 x199 + 4 x259 + 4 x319 + 4 x379 + 4 x439
       + 4 x499 + 4 x559 - 19 x619 <= 0
 c170: 4 x20 + 4 x80 + 4 x140 + 4 x200 + 4 x260 + 4 x320 + 4 x380 + 4 x440
       + 4 x500 + 4 x560 - 21 x620 <= 0
 c171: 4 x21 + 4 x81 + 4 x141 + 4 x201 + 4 x261 + 4 x321 + 4 x381 + 4 x441
       + 4 x501 + 4 x561 - 22 x621 <= 0
 c172: 4 x22 + 4 x82 + 4 x142 + 4 x202 + 4 x262 + 4 x322 + 4 x382 + 4 x442
       + 4 x502 + 4 x562 - 20 x622 <= 0
 c173: 4 x23 + 4 x83 + 4 x143 + 4 x203 + 4 x263 + 4 x323 + 4 x383 + 4 x443
       + 4 x503 + 4 x563 - 19 x623 <= 0
 c174: 4 x24 + 4 x84 + 4 x144 + 4 x204 + 4 x264 + 4 x324 + 4 x384 + 4 x444
       + 4 x504 + 4 x564 - 20 x624 <= 0
 c175: 4 x25 + 4 x85 + 4 x145 + 4 x205 + 4 x265 + 4 x325 + 4 x385 + 4 x445
       + 4 x505 + 4 x565 - 22 x625 <= 0
 c176: 4 x26 + 4 x86 + 4 x146 + 4 x206 + 4 x266 + 4 x326 + 4 x386 + 4 x446
       + 4 x506 + 4 x566 - 20 x626 <= 0
 c177: 4 x27 + 4 x87 + 4 x147 + 4 x207 + 4 x267 + 4 x327 + 4 x387 + 4 x447
       + 4 x507 + 4 x567 - 21 x627 <= 0
 c178: 4 x28 + 4 x88 + 4 x148 + 4 x208 + 4 x268 + 4 x328 + 4 x388 + 4 x448
       + 4 x508 + 4 x568 - 19 x628 <= 0
 c179: 4 x29 + 4 x89 + 4 x149 + 4 x209 + 4 x269 + 4 x329 + 4 x389 + 4 x449
       + 4 x509 + 4 x569 - 19 x629 <= 0
 c180: 4 x30 + 4 x90 + 4 x150 + 4 x210 + 4 x270 + 4 x330 + 4 x390 + 4 x450
       + 4 x510 + 4 x570 - 22 x630 <= 0
 c181: 4 x31 + 4 x91 + 4 x151 + 4 x211 + 4 x271 + 4 x331 + 4 x391 + 4 x451
       + 4 x511 + 4 x571 - 21 x631 <= 0
 c182: 4 x32 + 4 x92 + 4 x152 + 4 x212 + 4 x272 + 4 x332 + 4 x392 + 4 x452
       + 4 x512 + 4 x572 - 21 x632 <= 0
 c183: 4 x33 + 4 x93 + 4 x153 + 4 x213 + 4 x273 + 4 x333 + 4 x393 + 4 x453
       + 4 x513 + 4 x573 - 22 x633 <= 0
 c184: 4 x34 + 4 x94 + 4 x154 + 4 x214 + 4 x274 + 4 x334 + 4 x394 + 4 x454
       + 4 x514 + 4 x574 - 19 x634 <= 0
 c185: 4 x35 + 4 x95 + 4 x155 + 4 x215 + 4 x275 + 4 x335 + 4 x395 + 4 x455
       + 4 x515 + 4 x575 - 19 x635 <= 0
 c186: 4 x36 + 4 x96 + 4 x156 + 4 x216 + 4 x276 + 4 x336 + 4 x396 + 4 x456
       + 4 x516 + 4 x576 - 19 x636 <= 0
 c187: 4 x37 + 4 x97 + 4 x157 + 4 x217 + 4 x277 + 4 x337 + 4 x397 + 4 x457
       + 4 x517 + 4 x577 - 20 x637 <= 0
 c188: 4 x38 + 4 x98 + 4 x158 + 4 x218 + 4 x278 + 4 x338 + 4 x398 + 4 x458
       + 4 x518 + 4 x578 - 18 x638 <= 0
 c189: 4 x39 + 4 x99 + 4 x159 + 4 x219 + 4 x279 + 4 x339 + 4 x399 + 4 x459
       + 4 x519 + 4 x579 - 18 x639 <= 0
 c190: 4 x40 + 4 x100 + 4 x160 + 4 x220 + 4 x280 + 4 x340 + 4 x400 + 4 x460
       + 4 x520 + 4 x580 - 22 x640 <= 0
 c191: 4 x41 + 4 x101 + 4 x161 + 4 x221 + 4 x281 + 4 x341 + 4 x401 + 4 x461
       + 4 x521 + 4 x581 - 21 x641 <= 0
 c192: 4 x42 + 4 x102 + 4 x162 + 4 x222 + 4 x282 + 4 x342 + 4 x402 + 4 x462
       + 4 x522 + 4 x582 - 22 x642 <= 0
 c193: 4 x43 + 4 x103 + 4 x163 + 4 x223 + 4 x283 + 4 x343 + 4 x403 + 4 x463
       + 4 x523 + 4 x583 - 20 x643 <= 0
 c194: 4 x44 + 4 x104 + 4 x164 + 4 x224 + 4 x284 + 4 x344 + 4 x404 + 4 x464
       + 4 x524 + 4 x584 - 22 x644 <= 0
 c195: 4 x45 + 4 x105 + 4 x165 + 4 x225 + 4 x285 + 4 x345 + 4 x405 + 4 x465
       + 4 x525 + 4 x585 - 19 x645 <= 0
 c196: 4 x46 + 4 x106 + 4 x166 + 4 x226 + 4 x286 + 4 x346 + 4 x406 + 4 x466
       + 4 x526 + 4 x586 - 19 x646 <= 0
 c197: 4 x47 + 4 x107 + 4 x167 + 4 x227 + 4 x287 + 4 x347 + 4 x407 + 4 x467
       + 4 x527 + 4 x587 - 22 x647 <= 0
 c198: 4 x48 + 4 x108 + 4 x168 + 4 x228 + 4 x288 + 4 x348 + 4 x408 + 4 x468
       + 4 x528 + 4 x588 - 20 x648 <= 0
 c199: 4 x49 + 4 x109 + 4 x169 + 4 x229 + 4 x289 + 4 x349 + 4 x409 + 4 x469
       + 4 x529 + 4 x589 - 21 x649 <= 0
 c200: 4 x50 + 4 x110 + 4 x170 + 4 x230 + 4 x290 + 4 x350 + 4 x410 + 4 x470
       + 4 x530 + 4 x590 - 21 x650 <= 0
 c201: 4 x51 + 4 x111 + 4 x171 + 4 x231 + 4 x291 + 4 x351 + 4 x411 + 4 x471
       + 4 x531 + 4 x591 - 20 x651 <= 0
 c202: 4 x52 + 4 x112 + 4 x172 + 4 x232 + 4 x292 + 4 x352 + 4 x412 + 4 x472
       + 4 x532 + 4 x592 - 18 x652 <= 0
 c203: 4 x53 + 4 x113 + 4 x173 + 4 x233 + 4 x293 + 4 x353 + 4 x413 + 4 x473
       + 4 x533 + 4 x593 - 20 x653 <= 0
 c204: 4 x54 + 4 x114 + 4 x174 + 4 x234 + 4 x294 + 4 x354 + 4 x414 + 4 x474
       + 4 x534 + 4 x594 - 20 x654 <= 0
 c205: 4 x55 + 4 x115 + 4 x175 + 4 x235 + 4 x295 + 4 x355 + 4 x415 + 4 x475
       + 4 x535 + 4 x595 - 19 x655 <= 0
 c206: 4 x56 + 4 x116 + 4 x176 + 4 x236 + 4 x296 + 4 x356 + 4 x416 + 4 x476
       + 4 x536 + 4 x596 - 21 x656 <= 0
 c207: 4 x57 + 4 x117 + 4 x177 + 4 x237 + 4 x297 + 4 x357 + 4 x417 + 4 x477
       + 4 x537 + 4 x597 - 20 x657 <= 0
 c208: 4 x58 + 4 x118 + 4 x178 + 4 x238 + 4 x298 + 4 x358 + 4 x418 + 4 x478
       + 4 x538 + 4 x598 - 22 x658 <= 0
 c209: 4 x59 + 4 x119 + 4 x179 + 4 x239 + 4 x299 + 4 x359 + 4 x419 + 4 x479
       + 4 x539 + 4 x599 - 19 x659 <= 0
 c210: 4 x60 + 4 x120 + 4 x180 + 4 x240 + 4 x300 + 4 x360 + 4 x420 + 4 x480
       + 4 x540 + 4 x600 - 5 x660 <= 0
Bounds
 0 <= x1 <= 1
 0 <= x2 <= 1
 0 <= x3 <= 1
 0 <= x4 <= 1
 0 <= x5 <= 1
 0 <= x6 <= 1
 0 <= x7 <= 1
 0 <= x8 <= 1
 0 <= x9 <= 1
 0 <= x10 <= 1
 0 <= x11 <= 1
 0 <= x12 <= 1
 0 <= x13 <= 1
 0 <= x14 <= 1
 0 <= x15 <= 1
 0 <= x16 <= 1
 0 <= x17 <= 1
 0 <= x18 <= 1
 0 <= x19 <= 1
 0 <= x20 <= 1
 0 <= x21 <= 1
 0 <= x22 <= 1
 0 <= x23 <= 1
 0 <= x24 <= 1
 0 <= x25 <= 1
 0 <= x26 <= 1
 0 <= x27 <= 1
 0 <= x28 <= 1
 0 <= x29 <= 1
 0 <= x30 <= 1
 0 <= x31 <= 1
 0 <= x32 <= 1
 0 <= x33 <= 1
 0 <= x34 <= 1
 0 <= x35 <= 1
 0 <= x36 <= 1
 0 <= x37 <= 1
 0 <= x38 <= 1
 0 <= x39 <= 1
 0 <= x40 <= 1
 0 <= x41 <= 1
 0 <= x42 <= 1
 0 <= x43 <= 1
 0 <= x44 <= 1
 0 <= x45 <= 1
 0 <= x46 <= 1
 0 <= x47 <= 1
 0 <= x48 <= 1
 0 <= x49 <= 1
 0 <= x50 <= 1
 0 <= x51 <= 1
 0 <= x52 <= 1
 0 <= x53 <= 1
 0 <= x54 <= 1
 0 <= x55 <= 1
 0 <= x56 <= 1
 0 <= x57 <= 1
 0 <= x58 <= 1
 0 <= x59 <= 1
 0 <= x60 <= 1
 0 <= x61 <= 1
 0 <= x62 <= 1
 0 <= x63 <= 1
 0 <= x64 <= 1
 0 <= x65 <= 1
 0 <= x66 <= 1
 0 <= x67 <= 1
 0 <= x68 <= 1
 0 <= x69 <= 1
 0 <= x70 <= 1
 0 <= x71 <= 1
 0 <= x72 <= 1
 0 <= x73 <= 1
 0 <= x74 <= 1
 0 <= x75 <= 1
 0 <= x76 <= 1
 0 <= x77 <= 1
 0 <= x78 <= 1
 0 <= x79 <= 1
 0 <= x80 <= 1
 0 <= x81 <= 1
 0 <= x82 <= 1
 0 <= x83 <= 1
 0 <= x84 <= 1
 0 <= x85 <= 1
 0 <= x86 <= 1
 0 <= x87 <= 1
 0 <= x88 <= 1
 0 <= x89 <= 1
 0 <= x90 <= 1
 0 <= x91 <= 1
 0 <= x92 <= 1
 0 <= x93 <= 1
 0 <= x94 <= 1
 0 <= x95 <= 1
 0 <= x96 <= 1
 0 <= x97 <= 1
 0 <= x98 <= 1
 0 <= x99 <= 1
 0 <= x100 <= 1
 0 <= x101 <= 1
 0 <= x102 <= 1
 0 <= x103 <= 1
 0 <= x104 <= 1
 0 <= x105 <= 1
 0 <= x106 <= 1
 0 <= x107 <= 1
 0 <= x108 <= 1
 0 <= x109 <= 1
 0 <= x110 <= 1
 0 <= x111 <= 1
 0 <= x112 <= 1
 0 <= x113 <= 1
 0 <= x114 <= 1
 0 <= x115 <= 1
 0 <= x116 <= 1
 0 <= x117 <= 1
 0 <= x118 <= 1
 0 <= x119 <= 1
 0 <= x120 <= 1
 0 <= x121 <= 1
 0 <= x122 <= 1
 0 <= x123 <= 1
 0 <= x124 <= 1
 0 <= x125 <= 1
 0 <= x126 <= 1
 0 <= x127 <= 1
 0 <= x128 <= 1
 0 <= x129 <= 1
 0 <= x130 <= 1
 0 <= x131 <= 1
 0 <= x132 <= 1
 0 <= x133 <= 1
 0 <= x134 <= 1
 0 <= x135 <= 1
 0 <= x136 <= 1
 0 <= x137 <= 1
 0 <= x138 <= 1
 0 <= x139 <= 1
 0 <= x140 <= 1
 0 <= x141 <= 1
 0 <= x142 <= 1
 0 <= x143 <= 1
 0 <= x144 <= 1
 0 <= x145 <= 1
 0 <= x146 <= 1
 0 <= x147 <= 1
 0 <= x148 <= 1
 0 <= x149 <= 1
 0 <= x150 <= 1
 0 <= x151 <= 1
 0 <= x152 <= 1
 0 <= x153 <= 1
 0 <= x154 <= 1
 0 <= x155 <= 1
 0 <= x156 <= 1
 0 <= x157 <= 1
 0 <= x158 <= 1
 0 <= x159 <= 1
 0 <= x160 <= 1
 0 <= x161 <= 1
 0 <= x162 <= 1
 0 <= x163 <= 1
 0 <= x164 <= 1
 0 <= x165 <= 1
 0 <= x166 <= 1
 0 <= x167 <= 1
 0 <= x168 <= 1
 0 <= x169 <= 1
 0 <= x170 <= 1
 0 <= x171 <= 1
 0 <= x172 <= 1
 0 <= x173 <= 1
 0 <= x174 <= 1
 0 <= x175 <= 1
 0 <= x176 <= 1
 0 <= x177 <= 1
 0 <= x178 <= 1
 0 <= x179 <= 1
 0 <= x180 <= 1
 0 <= x181 <= 1
 0 <= x182 <= 1
 0 <= x183 <= 1
 0 <= x184 <= 1
 0 <= x185 <= 1
 0 <= x186 <= 1
 0 <= x187 <= 1
 0 <= x188 <= 1
 0 <= x189 <= 1
 0 <= x190 <= 1
 0 <= x191 <= 1
 0 <= x192 <= 1
 0 <= x193 <= 1
 0 <= x194 <= 1
 0 <= x195 <= 1
 0 <= x196 <= 1
 0 <= x197 <= 1
 0 <= x198 <= 1
 0 <= x199 <= 1
 0 <= x200 <= 1
 0 <= x201 <= 1
 0 <= x202 <= 1
 0 <= x203 <= 1
 0 <= x204 <= 1
 0 <= x205 <= 1
 0 <= x206 <= 1
 0 <= x207 <= 1
 0 <= x208 <= 1
 0 <= x209 <= 1
 0 <= x210 <= 1
 0 <= x211 <= 1
 0 <= x212 <= 1
 0 <= x213 <= 1
 0 <= x214 <= 1
 0 <= x215 <= 1
 0 <= x216 <= 1
 0 <= x217 <= 1
 0 <= x218 <= 1
 0 <= x219 <= 1
 0 <= x220 <= 1
 0 <= x221 <= 1
 0 <= x222 <= 1
 0 <= x223 <= 1
 0 <= x224 <= 1
 0 <= x225 <= 1
 0 <= x226 <= 1
 0 <= x227 <= 1
 0 <= x228 <= 1
 0 <= x229 <= 1
 0 <= x230 <= 1
 0 <= x231 <= 1
 0 <= x232 <= 1
 0 <= x233 <= 1
 0 <= x234 <= 1
 0 <= x235 <= 1
 0 <= x236 <= 1
 0 <= x237 <= 1
 0 <= x238 <= 1
 0 <= x239 <= 1
 0 <= x240 <= 1
 0 <= x241 <= 1
 0 <= x242 <= 1
 0 <= x243 <= 1
 0 <= x244 <= 1
 0 <= x245 <= 1
 0 <= x246 <= 1
 0 <= x247 <= 1
 0 <= x248 <= 1
 0 <= x249 <= 1
 0 <= x250 <= 1
 0 <= x251 <= 1
 0 <= x252 <= 1
 0 <= x253 <= 1
 0 <= x254 <= 1
 0 <= x255 <= 1
 0 <= x256 <= 1
 0 <= x257 <= 1
 0 <= x258 <= 1
 0 <= x259 <= 1
 0 <= x260 <= 1
 0 <= x261 <= 1
 0 <= x262 <= 1
 0 <= x263 <= 1
 0 <= x264 <= 1
 0 <= x265 <= 1
 0 <= x266 <= 1
 0 <= x267 <= 1
 0 <= x268 <= 1
 0 <= x269 <= 1
 0 <= x270 <= 1
 0 <= x271 <= 1
 0 <= x272 <= 1
 0 <= x273 <= 1
 0 <= x274 <= 1
 0 <= x275 <= 1
 0 <= x276 <= 1
 0 <= x277 <= 1
 0 <= x278 <= 1
 0 <= x279 <= 1
 0 <= x280 <= 1
 0 <= x281 <= 1
 0 <= x282 <= 1
 0 <= x283 <= 1
 0 <= x284 <= 1
 0 <= x285 <= 1
 0 <= x286 <= 1
 0 <= x287 <= 1
 0 <= x288 <= 1
 0 <= x289 <= 1
 0 <= x290 <= 1
 0 <= x291 <= 1
 0 <= x292 <= 1
 0 <= x293 <= 1
 0 <= x294 <= 1
 0 <= x295 <= 1
 0 <= x296 <= 1
 0 <= x297 <= 1
 0 <= x298 <= 1
 0 <= x299 <= 1
 0 <= x300 <= 1
 0 <= x301 <= 1
 0 <= x302 <= 1
 0 <= x303 <= 1
 0 <= x304 <= 1
 0 <= x305 <= 1
 0 <= x306 <= 1
 0 <= x307 <= 1
 0 <= x308 <= 1
 0 <= x309 <= 1
 0 <= x310 <= 1
 0 <= x311 <= 1
 0 <= x312 <= 1
 0 <= x313 <= 1
 0 <= x314 <= 1
 0 <= x315 <= 1
 0 <= x316 <= 1
 0 <= x317 <= 1
 0 <= x318 <= 1
 0 <= x319 <= 1
 0 <= x320 <= 1
 0 <= x321 <= 1
 0 <= x322 <= 1
 0 <= x323 <= 1
 0 <= x324 <= 1
 0 <= x325 <= 1
 0 <= x326 <= 1
 0 <= x327 <= 1
 0 <= x328 <= 1
 0 <= x329 <= 1
 0 <= x330 <= 1
 0 <= x331 <= 1
 0 <= x332 <= 1
 0 <= x333 <= 1
 0 <= x334 <= 1
 0 <= x335 <= 1
 0 <= x336 <= 1
 0 <= x337 <= 1
 0 <= x338 <= 1
 0 <= x339 <= 1
 0 <= x340 <= 1
 0 <= x341 <= 1
 0 <= x342 <= 1
 0 <= x343 <= 1
 0 <= x344 <= 1
 0 <= x345 <= 1
 0 <= x346 <= 1
 0 <= x347 <= 1
 0 <= x348 <= 1
 0 <= x349 <= 1
 0 <= x350 <= 1
 0 <= x351 <= 1
 0 <= x352 <= 1
 0 <= x353 <= 1
 0 <= x354 <= 1
 0 <= x355 <= 1
 0 <= x356 <= 1
 0 <= x357 <= 1
 0 <= x358 <= 1
 0 <= x359 <= 1
 0 <= x360 <= 1
 0 <= x361 <= 1
 0 <= x362 <= 1
 0 <= x363 <= 1
 0 <= x364 <= 1
 0 <= x365 <= 1
 0 <= x366 <= 1
 0 <= x367 <= 1
 0 <= x368 <= 1
 0 <= x369 <= 1
 0 <= x370 <= 1
 0 <= x371 <= 1
 0 <= x372 <= 1
 0 <= x373 <= 1
 0 <= x374 <= 1
 0 <= x375 <= 1
 0 <= x376 <= 1
 0 <= x377 <= 1
 0 <= x378 <= 1
 0 <= x379 <= 1
 0 <= x380 <= 1
 0 <= x381 <= 1
 0 <= x382 <= 1
 0 <= x383 <= 1
 0 <= x384 <= 1
 0 <= x385 <= 1
 0 <= x386 <= 1
 0 <= x387 <= 1
 0 <= x388 <= 1
 0 <= x389 <= 1
 0 <= x390 <= 1
 0 <= x391 <= 1
 0 <= x392 <= 1
 0 <= x393 <= 1
 0 <= x394 <= 1
 0 <= x395 <= 1
 0 <= x396 <= 1
 0 <= x397 <= 1
 0 <= x398 <= 1
 0 <= x399 <= 1
 0 <= x400 <= 1
 0 <= x401 <= 1
 0 <= x402 <= 1
 0 <= x403 <= 1
 0 <= x404 <= 1
 0 <= x405 <= 1
 0 <= x406 <= 1
 0 <= x407 <= 1
 0 <= x408 <= 1
 0 <= x409 <= 1
 0 <= x410 <= 1
 0 <= x411 <= 1
 0 <= x412 <= 1
 0 <= x413 <= 1
 0 <= x414 <= 1
 0 <= x415 <= 1
 0 <= x416 <= 1
 0 <= x417 <= 1
 0 <= x418 <= 1
 0 <= x419 <= 1
 0 <= x420 <= 1
 0 <= x421 <= 1
 0 <= x422 <= 1
 0 <= x423 <= 1
 0 <= x424 <= 1
 0 <= x425 <= 1
 0 <= x426 <= 1
 0 <= x427 <= 1
 0 <= x428 <= 1
 0 <= x429 <= 1
 0 <= x430 <= 1
 0 <= x431 <= 1
 0 <= x432 <= 1
 0 <= x433 <= 1
 0 <= x434 <= 1
 0 <= x435 <= 1
 0 <= x436 <= 1
 0 <= x437 <= 1
 0 <= x438 <= 1
 0 <= x439 <= 1
 0 <= x440 <= 1
 0 <= x441 <= 1
 0 <= x442 <= 1
 0 <= x443 <= 1
 0 <= x444 <= 1
 0 <= x445 <= 1
 0 <= x446 <= 1
 0 <= x447 <= 1
 0 <= x448 <= 1
 0 <= x449 <= 1
 0 <= x450 <= 1
 0 <= x451 <= 1
 0 <= x452 <= 1
 0 <= x453 <= 1
 0 <= x454 <= 1
 0 <= x455 <= 1
 0 <= x456 <= 1
 0 <= x457 <= 1
 0 <= x458 <= 1
 0 <= x459 <= 1
 0 <= x460 <= 1
 0 <= x461 <= 1
 0 <= x462 <= 1
 0 <= x463 <= 1
 0 <= x464 <= 1
 0 <= x465 <= 1
 0 <= x466 <= 1
 0 <= x467 <= 1
 0 <= x468 <= 1
 0 <= x469 <= 1
 0 <= x470 <= 1
 0 <= x471 <= 1
 0 <= x472 <= 1
 0 <= x473 <= 1
 0 <= x474 <= 1
 0 <= x475 <= 1
 0 <= x476 <= 1
 0 <= x477 <= 1
 0 <= x478 <= 1
 0 <= x479 <= 1
 0 <= x480 <= 1
 0 <= x481 <= 1
 0 <= x482 <= 1
 0 <= x483 <= 1
 0 <= x484 <= 1
 0 <= x485 <= 1
 0 <= x486 <= 1
 0 <= x487 <= 1
 0 <= x488 <= 1
 0 <= x489 <= 1
 0 <= x490 <= 1
 0 <= x491 <= 1
 0 <= x492 <= 1
 0 <= x493 <= 1
 0 <= x494 <= 1
 0 <= x495 <= 1
 0 <= x496 <= 1
 0 <= x497 <= 1
 0 <= x498 <= 1
 0 <= x499 <= 1
 0 <= x500 <= 1
 0 <= x501 <= 1
 0 <= x502 <= 1
 0 <= x503 <= 1
 0 <= x504 <= 1
 0 <= x505 <= 1
 0 <= x506 <= 1
 0 <= x507 <= 1
 0 <= x508 <= 1
 0 <= x509 <= 1
 0 <= x510 <= 1
 0 <= x511 <= 1
 0 <= x512 <= 1
 0 <= x513 <= 1
 0 <= x514 <= 1
 0 <= x515 <= 1
 0 <= x516 <= 1
 0 <= x517 <= 1
 0 <= x518 <= 1
 0 <= x519 <= 1
 0 <= x520 <= 1
 0 <= x521 <= 1
 0 <= x522 <= 1
 0 <= x523 <= 1
 0 <= x524 <= 1
 0 <= x525 <= 1
 0 <= x526 <= 1
 0 <= x527 <= 1
 0 <= x528 <= 1
 0 <= x529 <= 1
 0 <= x530 <= 1
 0 <= x531 <= 1
 0 <= x532 <= 1
 0 <= x533 <= 1
 0 <= x534 <= 1
 0 <= x535 <= 1
 0 <= x536 <= 1
 0 <= x537 <= 1
 0 <= x538 <= 1
 0 <= x539 <= 1
 0 <= x540 <= 1
 0 <= x541 <= 1
 0 <= x542 <= 1
 0 <= x543 <= 1
 0 <= x544 <= 1
 0 <= x545 <= 1
 0 <= x546 <= 1
 0 <= x547 <= 1
 0 <= x548 <= 1
 0 <= x549 <= 1
 0 <= x550 <= 1
 0 <= x551 <= 1
 0 <= x552 <= 1
 0 <= x553 <= 1
 0 <= x554 <= 1
 0 <= x555 <= 1
 0 <= x556 <= 1
 0 <= x557 <= 1
 0 <= x558 <= 1
 0 <= x559 <= 1
 0 <= x560 <= 1
 0 <= x561 <= 1
 0 <= x562 <= 1
 0 <= x563 <= 1
 0 <= x564 <= 1
 0 <= x565 <= 1
 0 <= x566 <= 1
 0 <= x567 <= 1
 0 <= x568 <= 1
 0 <= x569 <= 1
 0 <= x570 <= 1
 0 <= x571 <= 1
 0 <= x572 <= 1
 0 <= x573 <= 1
 0 <= x574 <= 1
 0 <= x575 <= 1
 0 <= x576 <= 1
 0 <= x577 <= 1
 0 <= x578 <= 1
 0 <= x579 <= 1
 0 <= x580 <= 1
 0 <= x581 <= 1
 0 <= x582 <= 1
 0 <= x583 <= 1
 0 <= x584 <= 1
 0 <= x585 <= 1
 0 <= x586 <= 1
 0 <= x587 <= 1
 0 <= x588 <= 1
 0 <= x589 <= 1
 0 <= x590 <= 1
 0 <= x591 <= 1
 0 <= x592 <= 1
 0 <= x593 <= 1
 0 <= x594 <= 1
 0 <= x595 <= 1
 0 <= x596 <= 1
 0 <= x597 <= 1
 0 <= x598 <= 1
 0 <= x599 <= 1
 0 <= x600 <= 1
 0 <= x601 <= 1
 0 <= x602 <= 1
 0 <= x603 <= 1
 0 <= x604 <= 1
 0 <= x605 <= 1
 0 <= x606 <= 1
 0 <= x607 <= 1
 0 <= x608 <= 1
 0 <= x609 <= 1
 0 <= x610 <= 1
 0 <= x611 <= 1
 0 <= x612 <= 1
 0 <= x613 <= 1
 0 <= x614 <= 1
 0 <= x615 <= 1
 0 <= x616 <= 1
 0 <= x617 <= 1
 0 <= x618 <= 1
 0 <= x619 <= 1
 0 <= x620 <= 1
 0 <= x621 <= 1
 0 <= x622 <= 1
 0 <= x623 <= 1
 0 <= x624 <= 1
 0 <= x625 <= 1
 0 <= x626 <= 1
 0 <= x627 <= 1
 0 <= x628 <= 1
 0 <= x629 <= 1
 0 <= x630 <= 1
 0 <= x631 <= 1
 0 <= x632 <= 1
 0 <= x633 <= 1
 0 <= x634 <= 1
 0 <= x635 <= 1
 0 <= x636 <= 1
 0 <= x637 <= 1
 0 <= x638 <= 1
 0 <= x639 <= 1
 0 <= x640 <= 1
 0 <= x641 <= 1
 0 <= x642 <= 1
 0 <= x643 <= 1
 0 <= x644 <= 1
 0 <= x645 <= 1
 0 <= x646 <= 1
 0 <= x647 <= 1
 0 <= x648 <= 1
 0 <= x649 <= 1
 0 <= x650 <= 1
 0 <= x651 <= 1
 0 <= x652 <= 1
 0 <= x653 <= 1
 0 <= x654 <= 1
 0 <= x655 <= 1
 0 <= x656 <= 1
 0 <= x657 <= 1
 0 <= x658 <= 1
 0 <= x659 <= 1
 0 <= x660 <= 1
Binaries
 x601  x602  x603  x604  x605  x606  x607  x608  x609  x610  x611  x612  x613 
 x614  x615  x616  x617  x618  x619  x620  x621  x622  x623  x624  x625  x626 
 x627  x628  x629  x630  x631  x632  x633  x634  x635  x636  x637  x638  x639 
 x640  x641  x642  x643  x644  x645  x646  x647  x648  x649  x650  x651  x652 
 x653  x654  x655  x656  x657  x658  x659  x660 
End
